c This file is generated by v2cnfMtr
c Generated on Mon Oct 19 13:15:48 2015
p cnf 559 1754
-1 -2 -80 0
1 2 -80 0
1 -2 80 0
-1 2 80 0
-3 -4 -81 0
3 4 -81 0
3 -4 81 0
-3 4 81 0
-5 -6 -82 0
5 6 -82 0
5 -6 82 0
-5 6 82 0
-7 -8 -83 0
7 8 -83 0
7 -8 83 0
-7 8 83 0
-9 -10 -84 0
9 10 -84 0
9 -10 84 0
-9 10 84 0
-11 -12 -85 0
11 12 -85 0
11 -12 85 0
-11 12 85 0
-13 -14 -86 0
13 14 -86 0
13 -14 86 0
-13 14 86 0
-15 -16 -87 0
15 16 -87 0
15 -16 87 0
-15 16 87 0
-17 -18 -88 0
17 18 -88 0
17 -18 88 0
-17 18 88 0
-262 -20 -89 0
262 20 -89 0
262 -20 89 0
-262 20 89 0
-21 -22 -90 0
21 22 -90 0
21 -22 90 0
-21 22 90 0
-23 -24 -91 0
23 24 -91 0
23 -24 91 0
-23 24 91 0
-25 -26 -92 0
25 26 -92 0
25 -26 92 0
-25 26 92 0
-27 -28 -93 0
27 28 -93 0
27 -28 93 0
-27 28 93 0
-29 -30 -94 0
29 30 -94 0
29 -30 94 0
-29 30 94 0
-31 -32 -95 0
31 32 -95 0
31 -32 95 0
-31 32 95 0
-33 -41 96 0
33 -96 0
41 -96 0
-34 -41 97 0
34 -97 0
41 -97 0
-35 -41 98 0
35 -98 0
41 -98 0
-36 -41 99 0
36 -99 0
41 -99 0
-37 -41 100 0
37 -100 0
41 -100 0
-38 -41 101 0
38 -101 0
41 -101 0
-39 -41 102 0
39 -102 0
41 -102 0
-40 -41 103 0
40 -103 0
41 -103 0
-1 -5 -104 0
1 5 -104 0
1 -5 104 0
-1 5 104 0
-9 -13 -105 0
9 13 -105 0
9 -13 105 0
-9 13 105 0
-2 -6 -106 0
2 6 -106 0
2 -6 106 0
-2 6 106 0
-10 -14 -107 0
10 14 -107 0
10 -14 107 0
-10 14 107 0
-3 -7 -108 0
3 7 -108 0
3 -7 108 0
-3 7 108 0
-11 -15 -109 0
11 15 -109 0
11 -15 109 0
-11 15 109 0
-4 -8 -110 0
4 8 -110 0
4 -8 110 0
-4 8 110 0
-12 -16 -111 0
12 16 -111 0
12 -16 111 0
-12 16 111 0
-17 -21 -112 0
17 21 -112 0
17 -21 112 0
-17 21 112 0
-25 -29 -113 0
25 29 -113 0
25 -29 113 0
-25 29 113 0
-18 -22 -114 0
18 22 -114 0
18 -22 114 0
-18 22 114 0
-26 -30 -115 0
26 30 -115 0
26 -30 115 0
-26 30 115 0
-262 -23 -116 0
262 23 -116 0
262 -23 116 0
-262 23 116 0
-27 -31 -117 0
27 31 -117 0
27 -31 117 0
-27 31 117 0
-20 -24 -118 0
20 24 -118 0
20 -24 118 0
-20 24 118 0
-28 -32 -119 0
28 32 -119 0
28 -32 119 0
-28 32 119 0
-80 -81 -120 0
80 81 -120 0
80 -81 120 0
-80 81 120 0
-82 -83 -121 0
82 83 -121 0
82 -83 121 0
-82 83 121 0
-84 -85 -122 0
84 85 -122 0
84 -85 122 0
-84 85 122 0
-86 -87 -123 0
86 87 -123 0
86 -87 123 0
-86 87 123 0
-88 -89 -124 0
88 89 -124 0
88 -89 124 0
-88 89 124 0
-90 -91 -125 0
90 91 -125 0
90 -91 125 0
-90 91 125 0
-92 -93 -126 0
92 93 -126 0
92 -93 126 0
-92 93 126 0
-94 -95 -127 0
94 95 -127 0
94 -95 127 0
-94 95 127 0
-104 -105 -128 0
104 105 -128 0
104 -105 128 0
-104 105 128 0
-106 -107 -129 0
106 107 -129 0
106 -107 129 0
-106 107 129 0
-108 -109 -130 0
108 109 -130 0
108 -109 130 0
-108 109 130 0
-110 -111 -131 0
110 111 -131 0
110 -111 131 0
-110 111 131 0
-112 -113 -132 0
112 113 -132 0
112 -113 132 0
-112 113 132 0
-114 -115 -133 0
114 115 -133 0
114 -115 133 0
-114 115 133 0
-116 -117 -134 0
116 117 -134 0
116 -117 134 0
-116 117 134 0
118 250 0
-118 -250 0
119 251 0
-119 -251 0
-250 -42 252 0
250 -252 0
42 -252 0
-251 -252 253 0
251 -253 0
252 -253 0
-118 -43 254 0
118 -254 0
43 -254 0
-251 -254 255 0
251 -255 0
254 -255 0
-250 -44 256 0
250 -256 0
44 -256 0
-119 -256 257 0
119 -257 0
256 -257 0
-118 -45 258 0
118 -258 0
45 -258 0
-119 -258 259 0
119 -259 0
258 -259 0
253 255 -260 0
-253 260 0
-255 260 0
257 260 -261 0
-257 261 0
-260 261 0
259 261 -135 0
-259 135 0
-261 135 0
-120 -121 -136 0
120 121 -136 0
120 -121 136 0
-120 121 136 0
-122 -123 -137 0
122 123 -137 0
122 -123 137 0
-122 123 137 0
-120 -122 -138 0
120 122 -138 0
120 -122 138 0
-120 122 138 0
-121 -123 -139 0
121 123 -139 0
121 -123 139 0
-121 123 139 0
-124 -125 -140 0
124 125 -140 0
124 -125 140 0
-124 125 140 0
-126 -127 -141 0
126 127 -141 0
126 -127 141 0
-126 127 141 0
-124 -126 -142 0
124 126 -142 0
124 -126 142 0
-124 126 142 0
-125 -127 -143 0
125 127 -143 0
125 -127 143 0
-125 127 143 0
-96 -140 -144 0
96 140 -144 0
96 -140 144 0
-96 140 144 0
-97 -141 -145 0
97 141 -145 0
97 -141 145 0
-97 141 145 0
-98 -142 -146 0
98 142 -146 0
98 -142 146 0
-98 142 146 0
-99 -143 -147 0
99 143 -147 0
99 -143 147 0
-99 143 147 0
-100 -136 -148 0
100 136 -148 0
100 -136 148 0
-100 136 148 0
-101 -137 -149 0
101 137 -149 0
101 -137 149 0
-101 137 149 0
-102 -138 -150 0
102 138 -150 0
102 -138 150 0
-102 138 150 0
-103 -139 -151 0
103 139 -151 0
103 -139 151 0
-103 139 151 0
-128 -144 -152 0
128 144 -152 0
128 -144 152 0
-128 144 152 0
-129 -145 -153 0
129 145 -153 0
129 -145 153 0
-129 145 153 0
-130 -146 -154 0
130 146 -154 0
130 -146 154 0
-130 146 154 0
-131 -147 -155 0
131 147 -155 0
131 -147 155 0
-131 147 155 0
-132 -148 -156 0
132 148 -156 0
132 -148 156 0
-132 148 156 0
-133 -149 -157 0
133 149 -157 0
133 -149 157 0
-133 149 157 0
-134 -150 -158 0
134 150 -158 0
134 -150 158 0
-134 150 158 0
-135 -151 -159 0
135 151 -159 0
135 -151 159 0
-135 151 159 0
152 160 0
-152 -160 0
153 161 0
-153 -161 0
154 162 0
-154 -162 0
152 163 0
-152 -163 0
153 164 0
-153 -164 0
155 165 0
-155 -165 0
152 166 0
-152 -166 0
154 167 0
-154 -167 0
155 168 0
-155 -168 0
153 169 0
-153 -169 0
154 170 0
-154 -170 0
155 171 0
-155 -171 0
157 172 0
-157 -172 0
159 173 0
-159 -173 0
157 174 0
-157 -174 0
158 175 0
-158 -175 0
156 176 0
-156 -176 0
159 177 0
-159 -177 0
156 178 0
-156 -178 0
158 179 0
-158 -179 0
156 180 0
-156 -180 0
157 181 0
-157 -181 0
158 182 0
-158 -182 0
156 183 0
-156 -183 0
157 184 0
-157 -184 0
159 185 0
-159 -185 0
156 186 0
-156 -186 0
158 187 0
-158 -187 0
159 188 0
-159 -188 0
157 189 0
-157 -189 0
158 190 0
-158 -190 0
159 191 0
-159 -191 0
153 192 0
-153 -192 0
155 193 0
-155 -193 0
153 194 0
-153 -194 0
154 195 0
-154 -195 0
152 196 0
-152 -196 0
155 197 0
-155 -197 0
152 198 0
-152 -198 0
154 199 0
-154 -199 0
-160 -161 -162 -155 200 0
160 -200 0
161 -200 0
162 -200 0
155 -200 0
-163 -164 -154 -165 201 0
163 -201 0
164 -201 0
154 -201 0
165 -201 0
-166 -153 -167 -168 202 0
166 -202 0
153 -202 0
167 -202 0
168 -202 0
-152 -169 -170 -171 203 0
152 -203 0
169 -203 0
170 -203 0
171 -203 0
-180 -181 -182 -159 204 0
180 -204 0
181 -204 0
182 -204 0
159 -204 0
-183 -184 -158 -185 205 0
183 -205 0
184 -205 0
158 -205 0
185 -205 0
-186 -157 -187 -188 206 0
186 -206 0
157 -206 0
187 -206 0
188 -206 0
-156 -189 -190 -191 207 0
156 -207 0
189 -207 0
190 -207 0
191 -207 0
200 201 202 203 -208 0
-200 208 0
-201 208 0
-202 208 0
-203 208 0
204 205 206 207 -209 0
-204 209 0
-205 209 0
-206 209 0
-207 209 0
-156 -172 -158 -173 -208 210 0
156 -210 0
172 -210 0
158 -210 0
173 -210 0
208 -210 0
-156 -174 -175 -159 -208 211 0
156 -211 0
174 -211 0
175 -211 0
159 -211 0
208 -211 0
-176 -157 -158 -177 -208 212 0
176 -212 0
157 -212 0
158 -212 0
177 -212 0
208 -212 0
-178 -157 -179 -159 -208 213 0
178 -213 0
157 -213 0
179 -213 0
159 -213 0
208 -213 0
-152 -192 -154 -193 -209 214 0
152 -214 0
192 -214 0
154 -214 0
193 -214 0
209 -214 0
-152 -194 -195 -155 -209 215 0
152 -215 0
194 -215 0
195 -215 0
155 -215 0
209 -215 0
-196 -153 -154 -197 -209 216 0
196 -216 0
153 -216 0
154 -216 0
197 -216 0
209 -216 0
-198 -153 -199 -155 -209 217 0
198 -217 0
153 -217 0
199 -217 0
155 -217 0
209 -217 0
-152 -210 218 0
152 -218 0
210 -218 0
-153 -210 219 0
153 -219 0
210 -219 0
-154 -210 220 0
154 -220 0
210 -220 0
-155 -210 221 0
155 -221 0
210 -221 0
-152 -211 222 0
152 -222 0
211 -222 0
-153 -211 223 0
153 -223 0
211 -223 0
-154 -211 224 0
154 -224 0
211 -224 0
-155 -211 225 0
155 -225 0
211 -225 0
-152 -212 226 0
152 -226 0
212 -226 0
-153 -212 227 0
153 -227 0
212 -227 0
-154 -212 228 0
154 -228 0
212 -228 0
-155 -212 229 0
155 -229 0
212 -229 0
-152 -213 230 0
152 -230 0
213 -230 0
-153 -213 231 0
153 -231 0
213 -231 0
-154 -213 232 0
154 -232 0
213 -232 0
-155 -213 233 0
155 -233 0
213 -233 0
-156 -214 234 0
156 -234 0
214 -234 0
-157 -214 235 0
157 -235 0
214 -235 0
-158 -214 236 0
158 -236 0
214 -236 0
-159 -214 237 0
159 -237 0
214 -237 0
-156 -215 238 0
156 -238 0
215 -238 0
-157 -215 239 0
157 -239 0
215 -239 0
-158 -215 240 0
158 -240 0
215 -240 0
-159 -215 241 0
159 -241 0
215 -241 0
-156 -216 242 0
156 -242 0
216 -242 0
-157 -216 243 0
157 -243 0
216 -243 0
-158 -216 244 0
158 -244 0
216 -244 0
-159 -216 245 0
159 -245 0
216 -245 0
-156 -217 246 0
156 -246 0
217 -246 0
-157 -217 247 0
157 -247 0
217 -247 0
-158 -217 248 0
158 -248 0
217 -248 0
-159 -217 249 0
159 -249 0
217 -249 0
-1 -218 -48 0
1 218 -48 0
1 -218 48 0
-1 218 48 0
-2 -219 -49 0
2 219 -49 0
2 -219 49 0
-2 219 49 0
-3 -220 -50 0
3 220 -50 0
3 -220 50 0
-3 220 50 0
-4 -221 -51 0
4 221 -51 0
4 -221 51 0
-4 221 51 0
-5 -222 -263 0
5 222 -263 0
5 -222 263 0
-5 222 263 0
-6 -223 -53 0
6 223 -53 0
6 -223 53 0
-6 223 53 0
-7 -224 -54 0
7 224 -54 0
7 -224 54 0
-7 224 54 0
-8 -225 -55 0
8 225 -55 0
8 -225 55 0
-8 225 55 0
-9 -226 -56 0
9 226 -56 0
9 -226 56 0
-9 226 56 0
-10 -227 -57 0
10 227 -57 0
10 -227 57 0
-10 227 57 0
-11 -228 -58 0
11 228 -58 0
11 -228 58 0
-11 228 58 0
-12 -229 -59 0
12 229 -59 0
12 -229 59 0
-12 229 59 0
-13 -230 -60 0
13 230 -60 0
13 -230 60 0
-13 230 60 0
-14 -231 -61 0
14 231 -61 0
14 -231 61 0
-14 231 61 0
-15 -232 -62 0
15 232 -62 0
15 -232 62 0
-15 232 62 0
-16 -233 -63 0
16 233 -63 0
16 -233 63 0
-16 233 63 0
-17 -234 -64 0
17 234 -64 0
17 -234 64 0
-17 234 64 0
-18 -235 -65 0
18 235 -65 0
18 -235 65 0
-18 235 65 0
-262 -236 -66 0
262 236 -66 0
262 -236 66 0
-262 236 66 0
-20 -237 -67 0
20 237 -67 0
20 -237 67 0
-20 237 67 0
-21 -238 -68 0
21 238 -68 0
21 -238 68 0
-21 238 68 0
-22 -239 -69 0
22 239 -69 0
22 -239 69 0
-22 239 69 0
-23 -240 -70 0
23 240 -70 0
23 -240 70 0
-23 240 70 0
-24 -241 -71 0
24 241 -71 0
24 -241 71 0
-24 241 71 0
-25 -242 -72 0
25 242 -72 0
25 -242 72 0
-25 242 72 0
-26 -243 -73 0
26 243 -73 0
26 -243 73 0
-26 243 73 0
-27 -244 -74 0
27 244 -74 0
27 -244 74 0
-27 244 74 0
-28 -245 -75 0
28 245 -75 0
28 -245 75 0
-28 245 75 0
-29 -246 -76 0
29 246 -76 0
29 -246 76 0
-29 246 76 0
-30 -247 -77 0
30 247 -77 0
30 -247 77 0
-30 247 77 0
-31 -248 -78 0
31 248 -78 0
31 -248 78 0
-31 248 78 0
-32 -249 -79 0
32 249 -79 0
32 -249 79 0
-32 249 79 0
-46 -19 -262 0
46 19 -262 0
46 -19 262 0
-46 19 262 0
-47 -263 -52 0
47 263 -52 0
47 -263 52 0
-47 263 52 0
c The second circuit:
-264 -265 -343 0
264 265 -343 0
264 -265 343 0
-264 265 343 0
-266 -267 -344 0
266 267 -344 0
266 -267 344 0
-266 267 344 0
-268 -269 -345 0
268 269 -345 0
268 -269 345 0
-268 269 345 0
-270 -271 -346 0
270 271 -346 0
270 -271 346 0
-270 271 346 0
-272 -273 -347 0
272 273 -347 0
272 -273 347 0
-272 273 347 0
-274 -275 -348 0
274 275 -348 0
274 -275 348 0
-274 275 348 0
-276 -277 -349 0
276 277 -349 0
276 -277 349 0
-276 277 349 0
-278 -279 -350 0
278 279 -350 0
278 -279 350 0
-278 279 350 0
-280 -281 -351 0
280 281 -351 0
280 -281 351 0
-280 281 351 0
-525 -283 -352 0
525 283 -352 0
525 -283 352 0
-525 283 352 0
-284 -285 -353 0
284 285 -353 0
284 -285 353 0
-284 285 353 0
-286 -287 -354 0
286 287 -354 0
286 -287 354 0
-286 287 354 0
-288 -289 -355 0
288 289 -355 0
288 -289 355 0
-288 289 355 0
-290 -291 -356 0
290 291 -356 0
290 -291 356 0
-290 291 356 0
-292 -293 -357 0
292 293 -357 0
292 -293 357 0
-292 293 357 0
-294 -295 -358 0
294 295 -358 0
294 -295 358 0
-294 295 358 0
-296 -304 359 0
296 -359 0
304 -359 0
-297 -304 360 0
297 -360 0
304 -360 0
-298 -304 361 0
298 -361 0
304 -361 0
-299 -304 362 0
299 -362 0
304 -362 0
-300 -304 363 0
300 -363 0
304 -363 0
-301 -304 364 0
301 -364 0
304 -364 0
-302 -304 365 0
302 -365 0
304 -365 0
-303 -304 366 0
303 -366 0
304 -366 0
-264 -268 -367 0
264 268 -367 0
264 -268 367 0
-264 268 367 0
-272 -276 -368 0
272 276 -368 0
272 -276 368 0
-272 276 368 0
-265 -269 -369 0
265 269 -369 0
265 -269 369 0
-265 269 369 0
-273 -277 -370 0
273 277 -370 0
273 -277 370 0
-273 277 370 0
-266 -270 -371 0
266 270 -371 0
266 -270 371 0
-266 270 371 0
-274 -278 -372 0
274 278 -372 0
274 -278 372 0
-274 278 372 0
-267 -271 -373 0
267 271 -373 0
267 -271 373 0
-267 271 373 0
-275 -279 -374 0
275 279 -374 0
275 -279 374 0
-275 279 374 0
-280 -284 -375 0
280 284 -375 0
280 -284 375 0
-280 284 375 0
-288 -292 -376 0
288 292 -376 0
288 -292 376 0
-288 292 376 0
-281 -285 -377 0
281 285 -377 0
281 -285 377 0
-281 285 377 0
-289 -293 -378 0
289 293 -378 0
289 -293 378 0
-289 293 378 0
-525 -286 -379 0
525 286 -379 0
525 -286 379 0
-525 286 379 0
-290 -294 -380 0
290 294 -380 0
290 -294 380 0
-290 294 380 0
-283 -287 -381 0
283 287 -381 0
283 -287 381 0
-283 287 381 0
-291 -295 -382 0
291 295 -382 0
291 -295 382 0
-291 295 382 0
-343 -344 -383 0
343 344 -383 0
343 -344 383 0
-343 344 383 0
-345 -346 -384 0
345 346 -384 0
345 -346 384 0
-345 346 384 0
-347 -348 -385 0
347 348 -385 0
347 -348 385 0
-347 348 385 0
-349 -350 -386 0
349 350 -386 0
349 -350 386 0
-349 350 386 0
-351 -352 -387 0
351 352 -387 0
351 -352 387 0
-351 352 387 0
-353 -354 -388 0
353 354 -388 0
353 -354 388 0
-353 354 388 0
-355 -356 -389 0
355 356 -389 0
355 -356 389 0
-355 356 389 0
-357 -358 -390 0
357 358 -390 0
357 -358 390 0
-357 358 390 0
-367 -368 -391 0
367 368 -391 0
367 -368 391 0
-367 368 391 0
-369 -370 -392 0
369 370 -392 0
369 -370 392 0
-369 370 392 0
-371 -372 -393 0
371 372 -393 0
371 -372 393 0
-371 372 393 0
-373 -374 -394 0
373 374 -394 0
373 -374 394 0
-373 374 394 0
-375 -376 -395 0
375 376 -395 0
375 -376 395 0
-375 376 395 0
-377 -378 -396 0
377 378 -396 0
377 -378 396 0
-377 378 396 0
-379 -380 -397 0
379 380 -397 0
379 -380 397 0
-379 380 397 0
381 513 0
-381 -513 0
382 514 0
-382 -514 0
-513 -305 515 0
513 -515 0
305 -515 0
-514 -515 516 0
514 -516 0
515 -516 0
-381 -306 517 0
381 -517 0
306 -517 0
-514 -517 518 0
514 -518 0
517 -518 0
-513 -307 519 0
513 -519 0
307 -519 0
-382 -519 520 0
382 -520 0
519 -520 0
-381 -308 521 0
381 -521 0
308 -521 0
-382 -521 522 0
382 -522 0
521 -522 0
516 518 -523 0
-516 523 0
-518 523 0
520 523 -524 0
-520 524 0
-523 524 0
522 524 -398 0
-522 398 0
-524 398 0
-383 -384 -399 0
383 384 -399 0
383 -384 399 0
-383 384 399 0
-385 -386 -400 0
385 386 -400 0
385 -386 400 0
-385 386 400 0
-383 -385 -401 0
383 385 -401 0
383 -385 401 0
-383 385 401 0
-384 -386 -402 0
384 386 -402 0
384 -386 402 0
-384 386 402 0
-387 -388 -403 0
387 388 -403 0
387 -388 403 0
-387 388 403 0
-389 -390 -404 0
389 390 -404 0
389 -390 404 0
-389 390 404 0
-387 -389 -405 0
387 389 -405 0
387 -389 405 0
-387 389 405 0
-388 -390 -406 0
388 390 -406 0
388 -390 406 0
-388 390 406 0
-359 -403 -407 0
359 403 -407 0
359 -403 407 0
-359 403 407 0
-360 -404 -408 0
360 404 -408 0
360 -404 408 0
-360 404 408 0
-361 -405 -409 0
361 405 -409 0
361 -405 409 0
-361 405 409 0
-362 -406 -410 0
362 406 -410 0
362 -406 410 0
-362 406 410 0
-363 -399 -411 0
363 399 -411 0
363 -399 411 0
-363 399 411 0
-364 -400 -412 0
364 400 -412 0
364 -400 412 0
-364 400 412 0
-365 -401 -413 0
365 401 -413 0
365 -401 413 0
-365 401 413 0
-366 -402 -414 0
366 402 -414 0
366 -402 414 0
-366 402 414 0
-391 -407 -415 0
391 407 -415 0
391 -407 415 0
-391 407 415 0
-392 -408 -416 0
392 408 -416 0
392 -408 416 0
-392 408 416 0
-393 -409 -417 0
393 409 -417 0
393 -409 417 0
-393 409 417 0
-394 -410 -418 0
394 410 -418 0
394 -410 418 0
-394 410 418 0
-395 -411 -419 0
395 411 -419 0
395 -411 419 0
-395 411 419 0
-396 -412 -420 0
396 412 -420 0
396 -412 420 0
-396 412 420 0
-397 -413 -421 0
397 413 -421 0
397 -413 421 0
-397 413 421 0
-398 -414 -422 0
398 414 -422 0
398 -414 422 0
-398 414 422 0
415 423 0
-415 -423 0
416 424 0
-416 -424 0
417 425 0
-417 -425 0
415 426 0
-415 -426 0
416 427 0
-416 -427 0
418 428 0
-418 -428 0
415 429 0
-415 -429 0
417 430 0
-417 -430 0
418 431 0
-418 -431 0
416 432 0
-416 -432 0
417 433 0
-417 -433 0
418 434 0
-418 -434 0
420 435 0
-420 -435 0
422 436 0
-422 -436 0
420 437 0
-420 -437 0
421 438 0
-421 -438 0
419 439 0
-419 -439 0
422 440 0
-422 -440 0
419 441 0
-419 -441 0
421 442 0
-421 -442 0
419 443 0
-419 -443 0
420 444 0
-420 -444 0
421 445 0
-421 -445 0
419 446 0
-419 -446 0
420 447 0
-420 -447 0
422 448 0
-422 -448 0
419 449 0
-419 -449 0
421 450 0
-421 -450 0
422 451 0
-422 -451 0
420 452 0
-420 -452 0
421 453 0
-421 -453 0
422 454 0
-422 -454 0
416 455 0
-416 -455 0
418 456 0
-418 -456 0
416 457 0
-416 -457 0
417 458 0
-417 -458 0
415 459 0
-415 -459 0
418 460 0
-418 -460 0
415 461 0
-415 -461 0
417 462 0
-417 -462 0
-423 -424 -425 -418 463 0
423 -463 0
424 -463 0
425 -463 0
418 -463 0
-426 -427 -417 -428 464 0
426 -464 0
427 -464 0
417 -464 0
428 -464 0
-429 -416 -430 -431 465 0
429 -465 0
416 -465 0
430 -465 0
431 -465 0
-415 -432 -433 -434 466 0
415 -466 0
432 -466 0
433 -466 0
434 -466 0
-443 -444 -445 -422 467 0
443 -467 0
444 -467 0
445 -467 0
422 -467 0
-446 -447 -421 -448 468 0
446 -468 0
447 -468 0
421 -468 0
448 -468 0
-449 -420 -450 -451 469 0
449 -469 0
420 -469 0
450 -469 0
451 -469 0
-419 -452 -453 -454 470 0
419 -470 0
452 -470 0
453 -470 0
454 -470 0
463 464 465 466 -471 0
-463 471 0
-464 471 0
-465 471 0
-466 471 0
467 468 469 470 -472 0
-467 472 0
-468 472 0
-469 472 0
-470 472 0
-419 -435 -421 -436 -471 473 0
419 -473 0
435 -473 0
421 -473 0
436 -473 0
471 -473 0
-419 -437 -438 -422 -471 474 0
419 -474 0
437 -474 0
438 -474 0
422 -474 0
471 -474 0
-439 -420 -421 -440 -471 475 0
439 -475 0
420 -475 0
421 -475 0
440 -475 0
471 -475 0
-441 -420 -442 -422 -471 476 0
441 -476 0
420 -476 0
442 -476 0
422 -476 0
471 -476 0
-415 -455 -417 -456 -472 477 0
415 -477 0
455 -477 0
417 -477 0
456 -477 0
472 -477 0
-415 -457 -458 -418 -472 478 0
415 -478 0
457 -478 0
458 -478 0
418 -478 0
472 -478 0
-459 -416 -417 -460 -472 479 0
459 -479 0
416 -479 0
417 -479 0
460 -479 0
472 -479 0
-461 -416 -462 -418 -472 480 0
461 -480 0
416 -480 0
462 -480 0
418 -480 0
472 -480 0
-415 -473 481 0
415 -481 0
473 -481 0
-416 -473 482 0
416 -482 0
473 -482 0
-417 -473 483 0
417 -483 0
473 -483 0
-418 -473 484 0
418 -484 0
473 -484 0
-415 -474 485 0
415 -485 0
474 -485 0
-416 -474 486 0
416 -486 0
474 -486 0
-417 -474 487 0
417 -487 0
474 -487 0
-418 -474 488 0
418 -488 0
474 -488 0
-415 -475 489 0
415 -489 0
475 -489 0
-416 -475 490 0
416 -490 0
475 -490 0
-417 -475 491 0
417 -491 0
475 -491 0
-418 -475 492 0
418 -492 0
475 -492 0
-415 -476 493 0
415 -493 0
476 -493 0
-416 -476 494 0
416 -494 0
476 -494 0
-417 -476 495 0
417 -495 0
476 -495 0
-418 -476 496 0
418 -496 0
476 -496 0
-419 -477 497 0
419 -497 0
477 -497 0
-420 -477 498 0
420 -498 0
477 -498 0
-421 -477 499 0
421 -499 0
477 -499 0
-422 -477 500 0
422 -500 0
477 -500 0
-419 -478 501 0
419 -501 0
478 -501 0
-420 -478 502 0
420 -502 0
478 -502 0
-421 -478 503 0
421 -503 0
478 -503 0
-422 -478 504 0
422 -504 0
478 -504 0
-419 -479 505 0
419 -505 0
479 -505 0
-420 -479 506 0
420 -506 0
479 -506 0
-421 -479 507 0
421 -507 0
479 -507 0
-422 -479 508 0
422 -508 0
479 -508 0
-419 -480 509 0
419 -509 0
480 -509 0
-420 -480 510 0
420 -510 0
480 -510 0
-421 -480 511 0
421 -511 0
480 -511 0
-422 -480 512 0
422 -512 0
480 -512 0
-264 -481 -311 0
264 481 -311 0
264 -481 311 0
-264 481 311 0
-265 -482 -312 0
265 482 -312 0
265 -482 312 0
-265 482 312 0
-266 -483 -313 0
266 483 -313 0
266 -483 313 0
-266 483 313 0
-267 -484 -314 0
267 484 -314 0
267 -484 314 0
-267 484 314 0
-268 -485 -526 0
268 485 -526 0
268 -485 526 0
-268 485 526 0
-269 -486 -316 0
269 486 -316 0
269 -486 316 0
-269 486 316 0
-270 -487 -317 0
270 487 -317 0
270 -487 317 0
-270 487 317 0
-271 -488 -318 0
271 488 -318 0
271 -488 318 0
-271 488 318 0
-272 -489 -319 0
272 489 -319 0
272 -489 319 0
-272 489 319 0
-273 -490 -320 0
273 490 -320 0
273 -490 320 0
-273 490 320 0
-274 -491 -321 0
274 491 -321 0
274 -491 321 0
-274 491 321 0
-275 -492 -322 0
275 492 -322 0
275 -492 322 0
-275 492 322 0
-276 -493 -323 0
276 493 -323 0
276 -493 323 0
-276 493 323 0
-277 -494 -324 0
277 494 -324 0
277 -494 324 0
-277 494 324 0
-278 -495 -325 0
278 495 -325 0
278 -495 325 0
-278 495 325 0
-279 -496 -326 0
279 496 -326 0
279 -496 326 0
-279 496 326 0
-280 -497 -327 0
280 497 -327 0
280 -497 327 0
-280 497 327 0
-281 -498 -328 0
281 498 -328 0
281 -498 328 0
-281 498 328 0
-525 -499 -329 0
525 499 -329 0
525 -499 329 0
-525 499 329 0
-283 -500 -330 0
283 500 -330 0
283 -500 330 0
-283 500 330 0
-284 -501 -331 0
284 501 -331 0
284 -501 331 0
-284 501 331 0
-285 -502 -332 0
285 502 -332 0
285 -502 332 0
-285 502 332 0
-286 -503 -333 0
286 503 -333 0
286 -503 333 0
-286 503 333 0
-287 -504 -334 0
287 504 -334 0
287 -504 334 0
-287 504 334 0
-288 -505 -335 0
288 505 -335 0
288 -505 335 0
-288 505 335 0
-289 -506 -336 0
289 506 -336 0
289 -506 336 0
-289 506 336 0
-290 -507 -337 0
290 507 -337 0
290 -507 337 0
-290 507 337 0
-291 -508 -338 0
291 508 -338 0
291 -508 338 0
-291 508 338 0
-292 -509 -339 0
292 509 -339 0
292 -509 339 0
-292 509 339 0
-293 -510 -340 0
293 510 -340 0
293 -510 340 0
-293 510 340 0
-294 -511 -341 0
294 511 -341 0
294 -511 341 0
-294 511 341 0
-295 -512 -342 0
295 512 -342 0
295 -512 342 0
-295 512 342 0
-309 -282 -525 0
309 282 -525 0
309 -282 525 0
-309 282 525 0
-310 -526 -315 0
310 526 -315 0
310 -526 315 0
-310 526 315 0
c Force PIs of 2 ckts to be the same:
1 -264 0
-1 264 0
2 -265 0
-2 265 0
3 -266 0
-3 266 0
4 -267 0
-4 267 0
5 -268 0
-5 268 0
6 -269 0
-6 269 0
7 -270 0
-7 270 0
8 -271 0
-8 271 0
9 -272 0
-9 272 0
10 -273 0
-10 273 0
11 -274 0
-11 274 0
12 -275 0
-12 275 0
13 -276 0
-13 276 0
14 -277 0
-14 277 0
15 -278 0
-15 278 0
16 -279 0
-16 279 0
17 -280 0
-17 280 0
18 -281 0
-18 281 0
19 -282 0
-19 282 0
20 -283 0
-20 283 0
21 -284 0
-21 284 0
22 -285 0
-22 285 0
23 -286 0
-23 286 0
24 -287 0
-24 287 0
25 -288 0
-25 288 0
26 -289 0
-26 289 0
27 -290 0
-27 290 0
28 -291 0
-28 291 0
29 -292 0
-29 292 0
30 -293 0
-30 293 0
31 -294 0
-31 294 0
32 -295 0
-32 295 0
33 -296 0
-33 296 0
34 -297 0
-34 297 0
35 -298 0
-35 298 0
36 -299 0
-36 299 0
37 -300 0
-37 300 0
38 -301 0
-38 301 0
39 -302 0
-39 302 0
40 -303 0
-40 303 0
41 -304 0
-41 304 0
c XOR outputs of 2 ckts:
-48 -311 -527 0
48 311 -527 0
48 -311 527 0
-48 311 527 0
-49 -312 -528 0
49 312 -528 0
49 -312 528 0
-49 312 528 0
-50 -313 -529 0
50 313 -529 0
50 -313 529 0
-50 313 529 0
-51 -314 -530 0
51 314 -530 0
51 -314 530 0
-51 314 530 0
-52 -315 -531 0
52 315 -531 0
52 -315 531 0
-52 315 531 0
-53 -316 -532 0
53 316 -532 0
53 -316 532 0
-53 316 532 0
-54 -317 -533 0
54 317 -533 0
54 -317 533 0
-54 317 533 0
-55 -318 -534 0
55 318 -534 0
55 -318 534 0
-55 318 534 0
-56 -319 -535 0
56 319 -535 0
56 -319 535 0
-56 319 535 0
-57 -320 -536 0
57 320 -536 0
57 -320 536 0
-57 320 536 0
-58 -321 -537 0
58 321 -537 0
58 -321 537 0
-58 321 537 0
-59 -322 -538 0
59 322 -538 0
59 -322 538 0
-59 322 538 0
-60 -323 -539 0
60 323 -539 0
60 -323 539 0
-60 323 539 0
-61 -324 -540 0
61 324 -540 0
61 -324 540 0
-61 324 540 0
-62 -325 -541 0
62 325 -541 0
62 -325 541 0
-62 325 541 0
-63 -326 -542 0
63 326 -542 0
63 -326 542 0
-63 326 542 0
-64 -327 -543 0
64 327 -543 0
64 -327 543 0
-64 327 543 0
-65 -328 -544 0
65 328 -544 0
65 -328 544 0
-65 328 544 0
-66 -329 -545 0
66 329 -545 0
66 -329 545 0
-66 329 545 0
-67 -330 -546 0
67 330 -546 0
67 -330 546 0
-67 330 546 0
-68 -331 -547 0
68 331 -547 0
68 -331 547 0
-68 331 547 0
-69 -332 -548 0
69 332 -548 0
69 -332 548 0
-69 332 548 0
-70 -333 -549 0
70 333 -549 0
70 -333 549 0
-70 333 549 0
-71 -334 -550 0
71 334 -550 0
71 -334 550 0
-71 334 550 0
-72 -335 -551 0
72 335 -551 0
72 -335 551 0
-72 335 551 0
-73 -336 -552 0
73 336 -552 0
73 -336 552 0
-73 336 552 0
-74 -337 -553 0
74 337 -553 0
74 -337 553 0
-74 337 553 0
-75 -338 -554 0
75 338 -554 0
75 -338 554 0
-75 338 554 0
-76 -339 -555 0
76 339 -555 0
76 -339 555 0
-76 339 555 0
-77 -340 -556 0
77 340 -556 0
77 -340 556 0
-77 340 556 0
-78 -341 -557 0
78 341 -557 0
78 -341 557 0
-78 341 557 0
-79 -342 -558 0
79 342 -558 0
79 -342 558 0
-79 342 558 0
c The last OR gate of the miter:
527 528 529 530 531 532 533 534 535 536 537 538 539 540 541 542 543 544 545 546 547 548 549 550 551 552 553 554 555 556 557 558 -559 0
-527 559 0
-528 559 0
-529 559 0
-530 559 0
-531 559 0
-532 559 0
-533 559 0
-534 559 0
-535 559 0
-536 559 0
-537 559 0
-538 559 0
-539 559 0
-540 559 0
-541 559 0
-542 559 0
-543 559 0
-544 559 0
-545 559 0
-546 559 0
-547 559 0
-548 559 0
-549 559 0
-550 559 0
-551 559 0
-552 559 0
-553 559 0
-554 559 0
-555 559 0
-556 559 0
-557 559 0
-558 559 0
559 0
